proyfinal/src/viki/013/experimentInOfficeAgust.take6.output/b7c522de-0282-4249-82e3-98a72d4d5d74.als.dat
{'cnf.clauses': '118081',
 'cnf.totvars': '69608',
 'conflict literals': '21996',
 'conflicts': '962',
 'decisions': '12316',
 'memused.mb': '14.55',
 'outcome': 'UNSAT',
 'propagations': '1431101',
 'restarts': '7',
 'solver.msecs': 95,
 'task.msecs': 145}
